{
  "Solver": "clingo version 5.4.1",
  "Input": [
    "knowledge-base-instances.lp","knowledge_base_problem_class_2.lp","functions.lp"
  ],
  "Call": [
    {
      "Witnesses": [
        {
          "Value": [
            "clash_literal(l0)", "atom(a(0))", "atom(a(1))", "atom(a(2))", "atom(a(3))", "atom(a(4))", "atom(a(5))", "atom(a(6))", "atom(a(7))", "atom(a(8))", "atom(a(9))", "atom(a(10))", "atom(a(11))", "atom(a(12))", "atom(a(13))", "atom(a(14))", "atom(a(15))", "atom(a(16))", "atom(a(17))", "atom(a(18))", "atom(a(19))", "atom(a(20))", "atom(a(21))", "atom(a(22))", "atom(a(23))", "atom(a(24))", "atom(a(25))", "atom(a(26))", "atom(a(27))", "atom(a(28))", "atom(a(29))", "atom(a(30))", "atom(a(31))", "atom(a(32))", "atom(a(33))", "atom(a(34))", "atom(a(35))", "atom(a(36))", "atom(a(37))", "atom(a(38))", "atom(a(39))", "atom(a(40))", "atom(a(41))", "atom(a(42))", "atom(a(43))", "atom(a(44))", "atom(a(45))", "atom(a(46))", "atom(a(47))", "atom(a(48))", "atom(a(49))", "atom(a(50))", "atom(a(51))", "atom(a(52))", "atom(a(53))", "atom(a(54))", "atom(a(55))", "atom(a(56))", "atom(a(57))", "atom(a(58))", "atom(a(59))", "atom(a(60))", "atom(a(61))", "atom(a(62))", "atom(a(63))", "atom(a(64))", "atom(a(65))", "atom(a(66))", "atom(a(67))", "atom(a(68))", "atom(a(69))", "atom(a(70))", "atom(a(71))", "atom(a(72))", "atom(a(73))", "atom(a(74))", "atom(a(75))", "atom(a(76))", "atom(a(77))", "atom(a(78))", "atom(a(79))", "atom(a(80))", "atom(a(81))", "atom(a(82))", "atom(a(83))", "atom(a(84))", "atom(a(85))", "atom(a(86))", "atom(a(87))", "atom(a(88))", "atom(a(89))", "atom(a(90))", "atom(a(91))", "atom(a(92))", "atom(a(93))", "atom(a(94))", "atom(a(95))", "atom(a(96))", "atom(a(97))", "atom(a(98))", "atom(a(99))", "atom(a(100))", "atom(a(101))", "atom(a(102))", "atom(a(103))", "atom(a(104))", "atom(a(105))", "atom(a(106))", "atom(a(107))", "atom(a(108))", "atom(a(109))", "atom(a(110))", "atom(a(111))", "atom(a(112))", "atom(a(113))", "atom(a(114))", "atom(a(115))", "atom(a(116))", "atom(a(117))", "atom(a(118))", "atom(a(119))", "atom(a(120))", "atom(a(121))", "atom(a(122))", "atom(a(123))", "atom(a(124))", "atom_index(a(0),0)", "atom_index(a(1),1)", "atom_index(a(2),2)", "atom_index(a(3),3)", "atom_index(a(4),4)", "atom_index(a(5),5)", "atom_index(a(6),6)", "atom_index(a(7),7)", "atom_index(a(8),8)", "atom_index(a(9),9)", "atom_index(a(10),10)", "atom_index(a(11),11)", "atom_index(a(12),12)", "atom_index(a(13),13)", "atom_index(a(14),14)", "atom_index(a(15),15)", "atom_index(a(16),16)", "atom_index(a(17),17)", "atom_index(a(18),18)", "atom_index(a(19),19)", "atom_index(a(20),20)", "atom_index(a(21),21)", "atom_index(a(22),22)", "atom_index(a(23),23)", "atom_index(a(24),24)", "atom_index(a(25),25)", "atom_index(a(26),26)", "atom_index(a(27),27)", "atom_index(a(28),28)", "atom_index(a(29),29)", "atom_index(a(30),30)", "atom_index(a(31),31)", "atom_index(a(32),32)", "atom_index(a(33),33)", "atom_index(a(34),34)", "atom_index(a(35),35)", "atom_index(a(36),36)", "atom_index(a(37),37)", "atom_index(a(38),38)", "atom_index(a(39),39)", "atom_index(a(40),40)", "atom_index(a(41),41)", "atom_index(a(42),42)", "atom_index(a(43),43)", "atom_index(a(44),44)", "atom_index(a(45),45)", "atom_index(a(46),46)", "atom_index(a(47),47)", "atom_index(a(48),48)", "atom_index(a(49),49)", "atom_index(a(50),50)", "atom_index(a(51),51)", "atom_index(a(52),52)", "atom_index(a(53),53)", "atom_index(a(54),54)", "atom_index(a(55),55)", "atom_index(a(56),56)", "atom_index(a(57),57)", "atom_index(a(58),58)", "atom_index(a(59),59)", "atom_index(a(60),60)", "atom_index(a(61),61)", "atom_index(a(62),62)", "atom_index(a(63),63)", "atom_index(a(64),64)", "atom_index(a(65),65)", "atom_index(a(66),66)", "atom_index(a(67),67)", "atom_index(a(68),68)", "atom_index(a(69),69)", "atom_index(a(70),70)", "atom_index(a(71),71)", "atom_index(a(72),72)", "atom_index(a(73),73)", "atom_index(a(74),74)", "atom_index(a(75),75)", "atom_index(a(76),76)", "atom_index(a(77),77)", "atom_index(a(78),78)", "atom_index(a(79),79)", "atom_index(a(80),80)", "atom_index(a(81),81)", "atom_index(a(82),82)", "atom_index(a(83),83)", "atom_index(a(84),84)", "atom_index(a(85),85)", "atom_index(a(86),86)", "atom_index(a(87),87)", "atom_index(a(88),88)", "atom_index(a(89),89)", "atom_index(a(90),90)", "atom_index(a(91),91)", "atom_index(a(92),92)", "atom_index(a(93),93)", "atom_index(a(94),94)", "atom_index(a(95),95)", "atom_index(a(96),96)", "atom_index(a(97),97)", "atom_index(a(98),98)", "atom_index(a(99),99)", "atom_index(a(100),100)", "atom_index(a(101),101)", "atom_index(a(102),102)", "atom_index(a(103),103)", "atom_index(a(104),104)", "atom_index(a(105),105)", "atom_index(a(106),106)", "atom_index(a(107),107)", "atom_index(a(108),108)", "atom_index(a(109),109)", "atom_index(a(110),110)", "atom_index(a(111),111)", "atom_index(a(112),112)", "atom_index(a(113),113)", "atom_index(a(114),114)", "atom_index(a(115),115)", "atom_index(a(116),116)", "atom_index(a(117),117)", "atom_index(a(118),118)", "atom_index(a(119),119)", "atom_index(a(120),120)", "atom_index(a(121),121)", "atom_index(a(122),122)", "atom_index(a(123),123)", "atom_index(a(124),124)", "linear", "distribution_specified", "index(0,a(0))", "index(1,a(1))", "index(2,a(2))", "index(3,a(3))", "index(4,a(4))", "index(5,a(5))", "index(6,a(6))", "index(7,a(7))", "index(8,a(8))", "index(9,a(9))", "index(10,a(10))", "index(11,a(11))", "index(12,a(12))", "index(13,a(13))", "index(14,a(14))", "index(15,a(15))", "index(16,a(16))", "index(17,a(17))", "index(18,a(18))", "index(19,a(19))", "index(20,a(20))", "index(21,a(21))", "index(22,a(22))", "index(23,a(23))", "index(24,a(24))", "index(25,a(25))", "index(26,a(26))", "index(27,a(27))", "index(28,a(28))", "index(29,a(29))", "index(30,a(30))", "index(31,a(31))", "index(32,a(32))", "index(33,a(33))", "index(34,a(34))", "index(35,a(35))", "index(36,a(36))", "index(37,a(37))", "index(38,a(38))", "index(39,a(39))", "index(40,a(40))", "index(41,a(41))", "index(42,a(42))", "index(43,a(43))", "index(44,a(44))", "index(45,a(45))", "index(46,a(46))", "index(47,a(47))", "index(48,a(48))", "index(49,a(49))", "index(50,a(50))", "index(51,a(51))", "index(52,a(52))", "index(53,a(53))", "index(54,a(54))", "index(55,a(55))", "index(56,a(56))", "index(57,a(57))", "index(58,a(58))", "index(59,a(59))", "index(60,a(60))", "index(61,a(61))", "index(62,a(62))", "index(63,a(63))", "index(64,a(64))", "index(65,a(65))", "index(66,a(66))", "index(67,a(67))", "index(68,a(68))", "index(69,a(69))", "index(70,a(70))", "index(71,a(71))", "index(72,a(72))", "index(73,a(73))", "index(74,a(74))", "index(75,a(75))", "index(76,a(76))", "index(77,a(77))", "index(78,a(78))", "index(79,a(79))", "index(80,a(80))", "index(81,a(81))", "index(82,a(82))", "index(83,a(83))", "index(84,a(84))", "index(85,a(85))", "index(86,a(86))", "index(87,a(87))", "index(88,a(88))", "index(89,a(89))", "index(90,a(90))", "index(91,a(91))", "index(92,a(92))", "index(93,a(93))", "index(94,a(94))", "index(95,a(95))", "index(96,a(96))", "index(97,a(97))", "index(98,a(98))", "index(99,a(99))", "index(100,a(100))", "index(101,a(101))", "index(102,a(102))", "index(103,a(103))", "index(104,a(104))", "index(105,a(105))", "index(106,a(106))", "index(107,a(107))", "index(108,a(108))", "index(109,a(109))", "index(110,a(110))", "index(111,a(111))", "index(112,a(112))", "index(113,a(113))", "index(114,a(114))", "index(115,a(115))", "index(116,a(116))", "index(117,a(117))", "index(118,a(118))", "index(119,a(119))", "index(120,a(120))", "index(121,a(121))", "index(122,a(122))", "index(123,a(123))", "index(124,a(124))", "clashed_atom(a(0))", "clashed_atom(a(1))", "clashed_atom(a(2))", "clashed_atom(a(3))", "clashed_atom(a(4))", "clashed_atom(a(5))", "clashed_atom(a(6))", "clashed_atom(a(7))", "clashed_atom(a(8))", "clashed_atom(a(9))", "clashed_atom(a(10))", "clashed_atom(a(11))", "defeasible(a(1),a(0))", "defeasible(a(2),a(1))", "defeasible(a(3),a(2))", "defeasible(a(4),a(3))", "defeasible(a(5),a(4))", "defeasible(a(6),a(5))", "defeasible(a(7),a(6))", "defeasible(a(8),a(7))", "defeasible(a(9),a(8))", "defeasible(a(10),a(9))", "defeasible(a(11),a(10))", "m_implication(a(1),a(0))", "m_implication(a(2),a(1))", "m_implication(a(3),a(2))", "m_implication(a(4),a(3))", "m_implication(a(5),a(4))", "m_implication(a(6),a(5))", "m_implication(a(7),a(6))", "m_implication(a(8),a(7))", "m_implication(a(9),a(8))", "m_implication(a(10),a(9))", "m_implication(a(11),a(10))", "clash(a(1),a(0))", "clash(a(2),a(1))", "clash(a(3),a(2))", "clash(a(4),a(3))", "clash(a(5),a(4))", "clash(a(6),a(5))", "clash(a(7),a(6))", "clash(a(8),a(7))", "clash(a(9),a(8))", "clash(a(10),a(9))", "clash(a(11),a(10))", "defeasible(a(0),a(42))", "defeasible(a(0),a(73))", "defeasible(a(0),a(74))", "defeasible(a(1),a(23))", "defeasible(a(1),a(24))", "defeasible(a(1),a(25))", "defeasible(a(2),a(37))", "defeasible(a(2),a(38))", "defeasible(a(2),a(39))", "defeasible(a(2),a(40))", "defeasible(a(3),a(120))", "defeasible(a(3),a(121))", "defeasible(a(3),a(122))", "defeasible(a(3),a(123))", "defeasible(a(3),a(124))", "defeasible(a(4),a(65))", "defeasible(a(4),a(66))", "defeasible(a(4),a(67))", "defeasible(a(4),a(68))", "defeasible(a(4),a(69))", "defeasible(a(4),a(70))", "defeasible(a(5),a(118))", "defeasible(a(5),a(119))", "defeasible(a(5),a(120))", "defeasible(a(5),a(121))", "defeasible(a(5),a(122))", "defeasible(a(5),a(123))", "defeasible(a(5),a(124))", "defeasible(a(6),a(110))", "defeasible(a(6),a(111))", "defeasible(a(6),a(112))", "defeasible(a(6),a(113))", "defeasible(a(6),a(114))", "defeasible(a(6),a(115))", "defeasible(a(6),a(116))", "defeasible(a(6),a(117))", "defeasible(a(7),a(108))", "defeasible(a(7),a(109))", "defeasible(a(7),a(118))", "defeasible(a(7),a(119))", "defeasible(a(7),a(120))", "defeasible(a(7),a(121))", "defeasible(a(7),a(122))", "defeasible(a(7),a(123))", "defeasible(a(7),a(124))", "defeasible(a(8),a(106))", "defeasible(a(8),a(107))", "defeasible(a(8),a(110))", "defeasible(a(8),a(111))", "defeasible(a(8),a(112))", "defeasible(a(8),a(113))", "defeasible(a(8),a(114))", "defeasible(a(8),a(115))", "defeasible(a(8),a(116))", "defeasible(a(8),a(117))", "defeasible(a(9),a(12))", "defeasible(a(9),a(13))", "defeasible(a(9),a(14))", "defeasible(a(9),a(15))", "defeasible(a(9),a(16))", "defeasible(a(9),a(17))", "defeasible(a(9),a(120))", "defeasible(a(9),a(121))", "defeasible(a(9),a(122))", "defeasible(a(9),a(123))", "defeasible(a(9),a(124))", "defeasible(a(10),a(108))", "defeasible(a(10),a(109))", "defeasible(a(10),a(110))", "defeasible(a(10),a(111))", "defeasible(a(10),a(112))", "defeasible(a(10),a(113))", "defeasible(a(10),a(114))", "defeasible(a(10),a(115))", "defeasible(a(10),a(116))", "defeasible(a(10),a(117))", "defeasible(a(10),a(118))", "defeasible(a(10),a(119))", "defeasible(a(11),a(83))", "defeasible(a(11),a(84))", "defeasible(a(11),a(85))", "defeasible(a(11),a(86))", "defeasible(a(11),a(88))", "defeasible(a(11),a(89))", "defeasible(a(11),a(90))", "defeasible(a(11),a(92))", "defeasible(a(11),a(93))", "defeasible(a(11),a(94))", "defeasible(a(11),a(96))", "defeasible(a(11),a(97))", "defeasible(a(11),a(98))", "defeasible(a(11),a(99))", "defeasible(a(11),a(100))", "defeasible(a(11),a(101))", "defeasible(a(11),a(102))", "defeasible(a(11),a(104))", "defeasible(a(11),a(105))", "defeasible(a(11),a(106))", "defeasible(a(11),a(120))", "defeasible(a(11),a(121))", "defeasible(a(11),a(122))", "defeasible(a(11),a(124))", "m_implication(a(0),a(42))", "m_implication(a(0),a(73))", "m_implication(a(0),a(74))", "m_implication(a(1),a(23))", "m_implication(a(1),a(24))", "m_implication(a(1),a(25))", "m_implication(a(2),a(37))", "m_implication(a(2),a(38))", "m_implication(a(2),a(39))", "m_implication(a(2),a(40))", "m_implication(a(3),a(120))", "m_implication(a(3),a(121))", "m_implication(a(3),a(122))", "m_implication(a(3),a(123))", "m_implication(a(3),a(124))", "m_implication(a(4),a(65))", "m_implication(a(4),a(66))", "m_implication(a(4),a(67))", "m_implication(a(4),a(68))", "m_implication(a(4),a(69))", "m_implication(a(4),a(70))", "m_implication(a(5),a(118))", "m_implication(a(5),a(119))", "m_implication(a(5),a(120))", "m_implication(a(5),a(121))", "m_implication(a(5),a(122))", "m_implication(a(5),a(123))", "m_implication(a(5),a(124))", "m_implication(a(6),a(110))", "m_implication(a(6),a(111))", "m_implication(a(6),a(112))", "m_implication(a(6),a(113))", "m_implication(a(6),a(114))", "m_implication(a(6),a(115))", "m_implication(a(6),a(116))", "m_implication(a(6),a(117))", "m_implication(a(7),a(108))", "m_implication(a(7),a(109))", "m_implication(a(7),a(118))", "m_implication(a(7),a(119))", "m_implication(a(7),a(120))", "m_implication(a(7),a(121))", "m_implication(a(7),a(122))", "m_implication(a(7),a(123))", "m_implication(a(7),a(124))", "m_implication(a(8),a(106))", "m_implication(a(8),a(107))", "m_implication(a(8),a(110))", "m_implication(a(8),a(111))", "m_implication(a(8),a(112))", "m_implication(a(8),a(113))", "m_implication(a(8),a(114))", "m_implication(a(8),a(115))", "m_implication(a(8),a(116))", "m_implication(a(8),a(117))", "m_implication(a(9),a(12))", "m_implication(a(9),a(13))", "m_implication(a(9),a(14))", "m_implication(a(9),a(15))", "m_implication(a(9),a(16))", "m_implication(a(9),a(17))", "m_implication(a(9),a(120))", "m_implication(a(9),a(121))", "m_implication(a(9),a(122))", "m_implication(a(9),a(123))", "m_implication(a(9),a(124))", "m_implication(a(10),a(108))", "m_implication(a(10),a(109))", "m_implication(a(10),a(110))", "m_implication(a(10),a(111))", "m_implication(a(10),a(112))", "m_implication(a(10),a(113))", "m_implication(a(10),a(114))", "m_implication(a(10),a(115))", "m_implication(a(10),a(116))", "m_implication(a(10),a(117))", "m_implication(a(10),a(118))", "m_implication(a(10),a(119))", "m_implication(a(11),a(83))", "m_implication(a(11),a(84))", "m_implication(a(11),a(85))", "m_implication(a(11),a(86))", "m_implication(a(11),a(88))", "m_implication(a(11),a(89))", "m_implication(a(11),a(90))", "m_implication(a(11),a(92))", "m_implication(a(11),a(93))", "m_implication(a(11),a(94))", "m_implication(a(11),a(96))", "m_implication(a(11),a(97))", "m_implication(a(11),a(98))", "m_implication(a(11),a(99))", "m_implication(a(11),a(100))", "m_implication(a(11),a(101))", "m_implication(a(11),a(102))", "m_implication(a(11),a(104))", "m_implication(a(11),a(105))", "m_implication(a(11),a(106))", "m_implication(a(11),a(120))", "m_implication(a(11),a(121))", "m_implication(a(11),a(122))", "m_implication(a(11),a(124))", "m_implication(a(0),-l0)", "defeasible(a(0),-l0)", "m_implication(a(1),l0)", "defeasible(a(1),l0)", "m_implication(a(2),-l0)", "defeasible(a(2),-l0)", "m_implication(a(3),l0)", "defeasible(a(3),l0)", "m_implication(a(4),-l0)", "defeasible(a(4),-l0)", "m_implication(a(5),l0)", "defeasible(a(5),l0)", "m_implication(a(6),-l0)", "defeasible(a(6),-l0)", "m_implication(a(7),l0)", "defeasible(a(7),l0)", "m_implication(a(8),-l0)", "defeasible(a(8),-l0)", "m_implication(a(9),l0)", "defeasible(a(9),l0)", "m_implication(a(10),-l0)", "defeasible(a(10),-l0)", "m_implication(a(11),l0)", "defeasible(a(11),l0)", "statement_count(0,4)", "statement_count(1,5)", "statement_count(2,6)", "statement_count(3,7)", "statement_count(4,8)", "statement_count(5,9)", "statement_count(6,10)", "statement_count(7,11)", "statement_count(8,12)", "statement_count(9,13)", "statement_count(10,14)", "statement_count(11,26)"
          ]
        }
      ]
    }
  ],
  "Result": "SATISFIABLE",
  "Models": {
    "Number": 1,
    "More": "yes"
  },
  "Calls": 1,
  "Time": {
    "Total": 0.681,
    "Solve": 0.012,
    "Model": 0.012,
    "Unsat": 0.000,
    "CPU": 0.376
  }
}
